(define-fun-rec
  v3
  ((x Int) (y Int) (z Int)) Int (ite (<= x 0) z (v3 (- x 1) y z)))
(define-fun-rec
  u3
  ((x Int) (y Int) (z Int)) Int
  (ite (<= x 0) y (* (u3 (- x 1) y z) (v3 (- x 1) y z))))
(define-fun
  j3
  () Int (+ 1 (+ 2 (* 2 (+ 2 2)))))
(define-fun
  w3
  ((x Int)) Int (u3 x 1 j3))
(define-fun
  h3
  ((x Int)) Int x)
(define-fun
  h2
  ((x Int)) Int x)
(define-fun
  g4
  ((x Int)) Int x)
(define-fun
  g3
  ((x Int) (y Int)) Int y)
(define-fun
  g1
  ((x Int)) Int x)
(define-fun
  g0
  ((x Int)) Int x)
(define-fun
  f4
  ((x Int)) Int (+ x x))
(define-fun-rec
  u4
  ((x Int) (y Int)) Int (ite (<= x 0) y (f4 (u4 (- x 1) y))))
(define-fun
  v4
  ((x Int)) Int (u4 x 1))
(define-fun
  fast
  ((x Int)) Int (div (w3 x) (v4 x)))
(define-fun
  f2
  ((x Int) (y Int)) Int (* (+ 2 y) x))
(define-fun-rec
  u2
  ((x Int) (y Int)) Int (ite (<= x 0) y (f2 (u2 (- x 1) y) x)))
(define-fun
  v2
  ((x Int)) Int (u2 2 x))
(define-fun
  f1
  ((x Int)) Int (- (v2 x) x))
(define-fun-rec
  u1
  ((x Int) (y Int)) Int (ite (<= x 0) y (f1 (u1 (- x 1) y))))
(define-fun
  v1
  ((x Int)) Int (u1 x 1))
(define-fun
  f0
  ((x Int)) Int (div x 2))
(define-fun-rec
  u0
  ((x Int) (y Int)) Int (ite (<= x 0) y (f0 (u0 (- x 1) y))))
(define-fun
  v0
  ((x Int)) Int (u0 x (v1 x)))
(assert-not
  (forall ((c Int)) (or (not (>= c 0)) (= (v0 c) (fast c)))))
